VALUE 767
1 513
4 516
6 518
7 519
10 522
11 523
13 525
16 528
18 530
19 531
21 533
24 536
25 537
28 540
30 542
31 543
34 546
35 547
37 549
40 552
41 553
44 556
46 558
47 559
49 561
52 564
54 566
55 567
58 570
59 571
61 573
64 576
66 578
67 579
69 581
72 584
73 585
76 588
78 590
79 591
81 593
84 596
86 598
87 599
90 602
91 603
93 605
96 608
97 609
100 612
102 614
103 615
106 618
107 619
109 621
112 624
114 626
115 627
117 629
120 632
121 633
124 636
126 638
127 639
130 642
131 643
133 645
136 648
137 649
140 652
142 654
143 655
145 657
148 660
150 662
151 663
154 666
155 667
157 669
160 672
161 673
164 676
166 678
167 679
170 682
171 683
173 685
176 688
178 690
179 691
181 693
184 696
185 697
188 700
190 702
191 703
193 705
196 708
198 710
199 711
202 714
203 715
205 717
208 720
210 722
211 723
213 725
216 728
217 729
220 732
222 734
223 735
226 738
227 739
229 741
232 744
233 745
236 748
238 750
239 751
241 753
244 756
246 758
247 759
250 762
251 763
253 765
256 512
258 770
259 771
261 773
264 776
265 777
268 780
270 782
271 783
273 785
276 788
278 790
279 791
282 794
283 795
285 797
288 800
289 801
292 804
294 806
295 807
298 810
299 811
301 813
304 816
306 818
307 819
309 821
312 824
313 825
316 828
318 830
319 831
321 833
324 836
326 838
327 839
330 842
331 843
333 845
336 848
338 850
339 851
341 853
344 856
345 857
348 860
350 862
351 863
354 866
355 867
357 869
360 872
361 873
364 876
366 878
367 879
369 881
372 884
374 886
375 887
378 890
379 891
381 893
383 384
383 895
385 897
388 900
390 902
391 903
394 906
395 907
397 909
400 912
402 914
403 915
405 917
408 920
409 921
412 924
414 926
415 927
418 930
419 931
421 933
424 936
425 937
428 940
430 942
431 943
433 945
436 948
438 950
439 951
442 954
443 955
445 957
447 448
447 959
450 962
451 963
453 965
456 968
457 969
460 972
462 974
463 975
465 977
468 980
470 982
471 983
474 986
475 987
477 989
479 480
479 991
481 993
484 996
486 998
487 999
490 1002
491 1003
493 1005
495 496
495 1007
498 1010
499 1011
501 1013
503 1015
503 504
505 1017
507 1019
507 508
509 1021
509 510
509 511
513 769
514 770
515 771
516 772
517 773
518 774
519 775
520 776
521 777
522 778
523 779
524 780
525 781
526 782
527 783
528 784
529 785
530 786
531 787
532 788
533 789
534 790
535 791
536 792
537 793
538 794
539 795
540 796
541 797
542 798
543 799
544 800
545 801
546 802
547 803
548 804
549 805
550 806
551 807
552 808
553 809
554 810
555 811
556 812
557 813
558 814
559 815
560 816
561 817
562 818
563 819
564 820
565 821
566 822
567 823
568 824
569 825
570 826
571 827
572 828
573 829
574 830
575 831
576 832
577 833
578 834
579 835
580 836
581 837
582 838
583 839
584 840
585 841
586 842
587 843
588 844
589 845
590 846
591 847
592 848
593 849
594 850
595 851
596 852
597 853
598 854
599 855
600 856
601 857
602 858
603 859
604 860
605 861
606 862
607 863
608 864
609 865
610 866
611 867
612 868
613 869
614 870
615 871
616 872
617 873
618 874
619 875
620 876
621 877
622 878
623 879
624 880
625 881
626 882
627 883
628 884
629 885
630 886
631 887
632 888
633 889
634 890
635 891
636 892
637 893
638 894
639 640
639 895
641 897
642 898
643 899
644 900
645 901
646 902
647 903
648 904
649 905
650 906
651 907
652 908
653 909
654 910
655 911
656 912
657 913
658 914
659 915
660 916
661 917
662 918
663 919
664 920
665 921
666 922
667 923
668 924
669 925
670 926
671 927
672 928
673 929
674 930
675 931
676 932
677 933
678 934
679 935
680 936
681 937
682 938
683 939
684 940
685 941
686 942
687 943
688 944
689 945
690 946
691 947
692 948
693 949
694 950
695 951
696 952
697 953
698 954
699 955
700 956
701 957
702 958
703 704
703 959
705 961
706 962
707 963
708 964
709 965
710 966
711 967
712 968
713 969
714 970
715 971
716 972
717 973
718 974
719 975
720 976
721 977
722 978
723 979
724 980
725 981
726 982
727 983
728 984
729 985
730 986
731 987
732 988
733 989
734 990
735 736
735 991
737 993
738 994
739 995
740 996
741 997
742 998
743 999
744 1000
745 1001
746 1002
747 1003
748 1004
749 1005
750 1006
751 752
751 1007
753 1009
754 1010
755 1011
756 1012
757 1013
758 1014
759 1015
759 760
761 1017
762 1018
763 1019
763 764
765 1021
765 766
765 767
769 897
770 898
771 899
772 900
773 901
774 902
775 903
776 904
777 905
778 906
779 907
780 908
781 909
782 910
783 911
784 912
785 913
786 914
787 915
788 916
789 917
790 918
791 919
792 920
793 921
794 922
795 923
796 924
797 925
798 926
799 927
800 928
801 929
802 930
803 931
804 932
805 933
806 934
807 935
808 936
809 937
810 938
811 939
812 940
813 941
814 942
815 943
816 944
817 945
818 946
819 947
820 948
821 949
822 950
823 951
824 952
825 953
826 954
827 955
828 956
829 957
830 958
831 832
831 959
833 961
834 962
835 963
836 964
837 965
838 966
839 967
840 968
841 969
842 970
843 971
844 972
845 973
846 974
847 975
848 976
849 977
850 978
851 979
852 980
853 981
854 982
855 983
856 984
857 985
858 986
859 987
860 988
861 989
862 990
863 864
863 991
865 993
866 994
867 995
868 996
869 997
870 998
871 999
872 1000
873 1001
874 1002
875 1003
876 1004
877 1005
878 1006
879 880
879 1007
881 1009
882 1010
883 1011
884 1012
885 1013
886 1014
887 1015
887 888
889 1017
890 1018
891 1019
891 892
893 1021
893 894
893 895
897 961
898 962
899 963
900 964
901 965
902 966
903 967
904 968
905 969
906 970
907 971
908 972
909 973
910 974
911 975
912 976
913 977
914 978
915 979
916 980
917 981
918 982
919 983
920 984
921 985
922 986
923 987
924 988
925 989
926 990
927 928
927 991
929 993
930 994
931 995
932 996
933 997
934 998
935 999
936 1000
937 1001
938 1002
939 1003
940 1004
941 1005
942 1006
943 944
943 1007
945 1009
946 1010
947 1011
948 1012
949 1013
950 1014
951 1015
951 952
953 1017
954 1018
955 1019
955 956
957 1021
957 958
957 959
961 993
962 994
963 995
964 996
965 997
966 998
967 999
968 1000
969 1001
970 1002
971 1003
972 1004
973 1005
974 1006
975 976
975 1007
977 1009
978 1010
979 1011
980 1012
981 1013
982 1014
983 1015
983 984
985 1017
986 1018
987 1019
987 988
989 1021
989 990
989 991
993 1009
994 1010
995 1011
996 1012
997 1013
998 1014
999 1015
999 1000
1001 1017
1002 1018
1003 1019
1003 1004
1005 1021
1005 1006
1005 1007
1009 1013
1010 1018
1011 1012
1011 1019
1013 1014
1013 1015
1013 1021
1017 1018
1017 1019
1017 1021
1021 1022
1024 512
1024 1022